<?xml version = "1.0" standalone="yes"?>
<!-- This file has been generated by DOcplex version 2.23.222  -->
<CPLEXSolution version="1.0">
 <header
   problemName="CVRP"
   objectiveValue="17791.8"
  />
 <variables>
  <variable name="x_0_1" index="0" value="1.00000"/>
  <variable name="x_0_2" index="1" value="1.00000"/>
  <variable name="x_0_6" index="5" value="1.00000"/>
  <variable name="x_0_7" index="6" value="1.00000"/>
  <variable name="x_0_8" index="7" value="1.00000"/>
  <variable name="x_0_9" index="8" value="1.00000"/>
  <variable name="x_0_10" index="9" value="1.00000"/>
  <variable name="x_0_12" index="11" value="1.00000"/>
  <variable name="x_0_13" index="12" value="1.00000"/>
  <variable name="x_0_14" index="13" value="1.00000"/>
  <variable name="x_0_15" index="14" value="1.00000"/>
  <variable name="x_0_16" index="15" value="1.00000"/>
  <variable name="x_0_17" index="16" value="1.00000"/>
  <variable name="x_0_18" index="17" value="1.00000"/>
  <variable name="x_0_22" index="21" value="1.00000"/>
  <variable name="x_0_24" index="23" value="1.00000"/>
  <variable name="x_1_0" index="26" value="1.00000"/>
  <variable name="x_2_0" index="52" value="1.00000"/>
  <variable name="x_3_21" index="98" value="1.00000"/>
  <variable name="x_4_0" index="104" value="1.00000"/>
  <variable name="x_5_0" index="130" value="1.00000"/>
  <variable name="x_6_0" index="156" value="1.00000"/>
  <variable name="x_7_23" index="204" value="1.00000"/>
  <variable name="x_8_11" index="218" value="1.00000"/>
  <variable name="x_9_0" index="234" value="1.00000"/>
  <variable name="x_10_0" index="260" value="1.00000"/>
  <variable name="x_11_0" index="286" value="1.00000"/>
  <variable name="x_12_0" index="312" value="1.00000"/>
  <variable name="x_13_19" index="356" value="1.00000"/>
  <variable name="x_14_25" index="388" value="1.00000"/>
  <variable name="x_15_0" index="390" value="1.00000"/>
  <variable name="x_16_5" index="421" value="1.00000"/>
  <variable name="x_17_20" index="461" value="1.00000"/>
  <variable name="x_18_26" index="493" value="1.00000"/>
  <variable name="x_19_4" index="498" value="1.00000"/>
  <variable name="x_20_0" index="520" value="1.00000"/>
  <variable name="x_21_0" index="546" value="1.00000"/>
  <variable name="x_22_0" index="572" value="1.00000"/>
  <variable name="x_23_0" index="598" value="1.00000"/>
  <variable name="x_24_3" index="627" value="1.00000"/>
  <variable name="x_25_0" index="650" value="1.00000"/>
  <variable name="x_26_0" index="676" value="1.00000"/>
  <variable name="u_1" index="702" value="29.00000"/>
  <variable name="u_2" index="703" value="45.00000"/>
  <variable name="u_3" index="704" value="38.00000"/>
  <variable name="u_4" index="705" value="45.00000"/>
  <variable name="u_5" index="706" value="44.00000"/>
  <variable name="u_6" index="707" value="42.00000"/>
  <variable name="u_7" index="708" value="15.00000"/>
  <variable name="u_8" index="709" value="24.00000"/>
  <variable name="u_9" index="710" value="40.00000"/>
  <variable name="u_10" index="711" value="37.00000"/>
  <variable name="u_11" index="712" value="41.00000"/>
  <variable name="u_12" index="713" value="33.00000"/>
  <variable name="u_13" index="714" value="6.00000"/>
  <variable name="u_14" index="715" value="28.00000"/>
  <variable name="u_15" index="716" value="33.00000"/>
  <variable name="u_16" index="717" value="19.00000"/>
  <variable name="u_17" index="718" value="9.00000"/>
  <variable name="u_18" index="719" value="38.00000"/>
  <variable name="u_19" index="720" value="23.00000"/>
  <variable name="u_20" index="721" value="44.00000"/>
  <variable name="u_21" index="722" value="45.00000"/>
  <variable name="u_22" index="723" value="27.00000"/>
  <variable name="u_23" index="724" value="45.00000"/>
  <variable name="u_24" index="725" value="7.00000"/>
  <variable name="u_25" index="726" value="45.00000"/>
  <variable name="u_26" index="727" value="45.00000"/>
 </variables>
</CPLEXSolution>
